NAME          pyramid
*   Maximum: 6000 
*   Minimum: 0
*   ieqs = [[0,1,0,0],[0,0,1,0,],[0,-1,0,1],[0,0,-1,1],[200,0,0,-1,]])
ROWS
 L  0
 L  1
 L  2
 L  3
 L  4
 N  c
COLUMNS
    x0        2         1.             c         -150.
    x1        3         1.             c         -100.
    x2        2         -1.            3         -1.
    x2        4         1.             c         -50.
RHS
    b         4         200.
ENDATA
